40
    14    75    70    39    94    69    32    33    75    82    51    66    63     4    83    94    91    81    64    74    21     9     9    67    45    39     8    39    80    75    32    58    72    73    30    93    98    43    26    18
     1    10     8     8     8    10     5     7     3    10     3     8     5     6     4     9     8     2     5     7     7     9     6     2     4     1     9     4     2     2     1     4     9     7     3     3     4     2     8     4
   513   228   419   398   232   147   101   102   756    38    39   135   116   555   465   823   347    49   714   338   411   440   230   354    50   419    16   773   580   437   149   139   874   291   353   852   773   606   132   835
